db/data/17184292282435712589597258911882518440.z3.out
-------------------
2500.231899300
